letting n =  10
letting blocks =  [[1, 2], [1, 3], [1, 4], [1, 6], [1, 9], [2, 1], [2, 2], [2, 4], [2, 5], [2, 6], [2, 10], [3, 2], [3, 3], [3, 4], [3, 8], [3, 9], [3, 10], [4, 1], [4, 5], [4, 8], [4, 9], [4, 10], [5, 1], [5, 3], [5, 4], [5, 7], [5, 8], [6, 1], [6, 5], [6, 7], [6, 8], [6, 9], [6, 10], [7, 1], [7, 2], [7, 5], [7, 6], [7, 7], [7, 10], [8, 1], [8, 3], [8, 5], [8, 6], [8, 9], [9, 2], [9, 3], [9, 4], [9, 6], [9, 8], [9, 9], [10, 2], [10, 4], [10, 5], [10, 6], [10, 8], [10, 10]]
